

******************************************************************************
This program contains Ipopt, a library for large-scale nonlinear optimization.
 Ipopt is released as open source code under the Eclipse Public License (EPL).
         For more information visit https://github.com/coin-or/Ipopt
******************************************************************************

This is Ipopt version 3.14.11, running with linear solver MUMPS 5.5.1.

Number of nonzeros in equality constraint Jacobian...:        0
Number of nonzeros in inequality constraint Jacobian.:       20
Number of nonzeros in Lagrangian Hessian.............:        6

Total number of variables............................:        6
                     variables with only lower bounds:        0
                variables with lower and upper bounds:        6
                     variables with only upper bounds:        0
Total number of equality constraints.................:        0
Total number of inequality constraints...............:        4
        inequality constraints with only lower bounds:        4
   inequality constraints with lower and upper bounds:        0
        inequality constraints with only upper bounds:        0

iter    objective    inf_pr   inf_du lg(mu)  ||d||  lg(rg) alpha_du alpha_pr  ls
   0  9.7445954e-02 4.30e+00 2.58e+01  -1.0 0.00e+00    -  0.00e+00 0.00e+00   0
   1  1.4353351e-01 4.20e+00 1.05e+02  -1.0 3.94e+00    -  1.41e-01 1.49e-02h  1
   2  1.2787494e+00 0.00e+00 4.67e+02  -1.0 7.31e-01    -  1.60e-01 1.00e+00f  1
   3  1.1409113e+00 0.00e+00 4.31e+01  -1.0 5.11e-03   4.0 1.00e+00 9.53e-01h  1
   4  1.3121965e+00 0.00e+00 1.97e+01  -1.0 5.74e-03   3.5 1.00e+00 1.00e+00f  1
   5  1.1227349e+00 0.00e+00 3.34e+01  -1.0 6.20e-03   3.0 1.00e+00 1.00e+00f  1
   6  1.0302404e+00 0.00e+00 2.62e+00  -1.0 4.05e-03   2.6 1.00e+00 1.00e+00h  1
   7  5.2085323e-01 0.00e+00 7.84e+00  -1.0 3.46e+00    -  1.85e-01 2.19e-01f  1
   8  4.5617571e-01 0.00e+00 1.98e+01  -1.0 1.14e+00    -  2.89e-01 8.68e-02f  2
   9  4.1136569e-01 0.00e+00 1.52e+02  -1.0 2.07e-02   2.1 1.00e+00 2.04e-01h  2
iter    objective    inf_pr   inf_du lg(mu)  ||d||  lg(rg) alpha_du alpha_pr  ls
  10  4.0321735e-01 0.00e+00 2.77e+01  -1.0 2.10e-01    -  7.96e-01 1.00e+00h  1
  11  5.3407738e-01 0.00e+00 3.70e+00  -1.0 6.75e-01    -  1.00e+00 1.00e+00f  1
  12  5.2968622e-01 0.00e+00 2.62e-01  -1.0 3.10e-01    -  1.00e+00 1.00e+00h  1
  13  1.5601793e-01 0.00e+00 1.36e+00  -1.7 1.85e-01    -  1.00e+00 1.00e+00f  1
  14  1.3947422e-01 0.00e+00 1.44e-02  -1.7 1.04e-01    -  1.00e+00 1.00e+00h  1
  15  3.0911128e-02 0.00e+00 1.22e+00  -3.8 2.59e-01    -  6.87e-01 1.00e+00f  1
  16  1.6594459e-02 1.96e-02 4.48e-01  -3.8 4.05e-01    -  1.00e+00 7.26e-01h  1
  17  1.6578031e-02 0.00e+00 1.21e-03  -3.8 4.50e-03    -  1.00e+00 1.00e+00h  1
  18  1.5627417e-02 9.70e-06 1.05e-05  -5.7 4.56e-03    -  1.00e+00 1.00e+00h  1
  19  1.5617733e-02 0.00e+00 1.76e-09  -8.6 6.13e-06    -  1.00e+00 1.00e+00h  1

Number of Iterations....: 19

                                   (scaled)                 (unscaled)
Objective...............:   1.5617733119928028e-02    1.5617733119928028e-02
Dual infeasibility......:   1.7589651308571024e-09    1.7589651308571024e-09
Constraint violation....:   0.0000000000000000e+00    0.0000000000000000e+00
Variable bound violation:   9.9622632728559852e-09    9.9622632728559852e-09
Complementarity.........:   2.5237828399297885e-09    2.5237828399297885e-09
Overall NLP error.......:   2.5237828399297885e-09    2.5237828399297885e-09


Number of objective function evaluations             = 24
Number of objective gradient evaluations             = 20
Number of equality constraint evaluations            = 0
Number of inequality constraint evaluations          = 24
Number of equality constraint Jacobian evaluations   = 0
Number of inequality constraint Jacobian evaluations = 20
Number of Lagrangian Hessian evaluations             = 19
Total seconds in IPOPT                               = 0.014

EXIT: Optimal Solution Found.
 
Ipopt 3.14.11: Optimal Solution Found
